83 9
51 72
3 179
19 196
91 1
27 181
33 61
79 26
30 45
14 14
82 41
9 6
6 21
41 42
8 86
22 35
77 46
8 56
92 22
6 190
51 43
98 14
35 44
11 162
46 64
13 55
12 36
22 6
11 98
3 28
20 16
11 21
70 66
95 56
79 14
34 87
4 174
32 122
25 14
32 50
58 1
90 59
90 30
21 88
81 26
20 123
77 22
33 56
19 113
41 107
